RT is False
Default write of storage_offers_DA.csv just to have a file (but constraint should be inactive)
Reading model...
...model read.
creating competitive generators file...
...competitive generators recorded.
Loading data...
.. day-ahead data with real-time VRE data read.
Compiling instance...
...instance created.
Creating Offer Mitigation (model will solve as dispatch if TRUE)...
NOTE: storage offers will not be mitigated
...storage offer mitigation file created
Converting model to MPEC...
...converted
NOTE: initial MIP solve with only storage competitive to get feasible solution
Solving...

Welcome to IBM(R) ILOG(R) CPLEX(R) Interactive Optimizer 12.9.0.0
  with Simplex, Mixed Integer & Barrier Optimizers
5725-A06 5725-A29 5724-Y48 5724-Y49 5724-Y54 5724-Y55 5655-Y21
Copyright IBM Corp. 1988, 2019.  All Rights Reserved.

Type 'help' for a list of available commands.
Type 'help' followed by a command name for more
information on commands.

CPLEX> Logfile 'cplex.log' closed.
Logfile 'C:\Users\llavin\Desktop\test826\logs\tmpxmttphgs.cplex.log' open.
CPLEX> New value for parallel optimization mode: -1
CPLEX> New value for mixed integer optimality gap tolerance: 0.01
CPLEX> New value for integrality tolerance: 1e-09
CPLEX> New value for feasibility tolerance: 0.001
CPLEX> New value for deterministic time limit in ticks: 75000
CPLEX> Problem 'C:\Users\llavin\Desktop\test826\logs\tmpfbqq_5ld.pyomo.lp' read.
Read time = 0.23 sec. (14.73 ticks)
CPLEX> Problem name         : C:\Users\llavin\Desktop\test826\logs\tmpfbqq_5ld.pyomo.lp
Objective sense      : Maximize
Variables            :   53805  [Nneg: 1,  Box: 22000,  Free: 4464,
                                 Binary: 27340]
Objective nonzeros   :    9029
Linear constraints   :  123205  [Less: 41346,  Greater: 59096,  Equal: 22763]
  Nonzeros           :  291753
  RHS nonzeros       :   67491

Variables            : Min LB: -5000.000        Max UB: 1000000.       
Objective nonzeros   : Min   : 0.3083333        Max   : 2500.000       
Linear constraints   :
  Nonzeros           : Min   : 0.3083333        Max   : 1000000.       
  RHS nonzeros       : Min   : 0.3083333        Max   : 1000000.       
CPLEX> CPXPARAM_Parallel                                -1
CPXPARAM_Simplex_Tolerances_Feasibility          0.001
CPXPARAM_DetTimeLimit                            75000
CPXPARAM_MIP_Tolerances_MIPGap                   0.01
CPXPARAM_MIP_Tolerances_Integrality              1.0000000000000001e-09
Tried aggregator 3 times.
MIP Presolve eliminated 88637 rows and 18961 columns.
MIP Presolve added 3378 rows and 0 columns.
MIP Presolve modified 24880 coefficients.
Aggregator did 12984 substitutions.
Reduced MIP has 24962 rows, 21304 columns, and 71183 nonzeros.
Reduced MIP has 8420 binaries, 0 generals, 0 SOSs, and 0 indicators.
Presolve time = 0.30 sec. (172.36 ticks)
Probing fixed 373 vars, tightened 2844 bounds.
Probing time = 1.19 sec. (885.31 ticks)
Tried aggregator 2 times.
MIP Presolve eliminated 845 rows and 747 columns.
MIP Presolve modified 2213 coefficients.
Aggregator did 37 substitutions.
Reduced MIP has 24080 rows, 20520 columns, and 68630 nonzeros.
Reduced MIP has 8047 binaries, 0 generals, 0 SOSs, and 0 indicators.
Presolve time = 0.11 sec. (67.76 ticks)
Probing time = 0.03 sec. (15.88 ticks)
Clique table members: 6597.
MIP emphasis: balance optimality and feasibility.
MIP search method: dynamic search.
Parallel mode: opportunistic, using up to 32 threads.
Root relaxation solution time = 0.41 sec. (512.32 ticks)

        Nodes                                         Cuts/
   Node  Left     Objective  IInf  Best Integer    Best Bound    ItCnt     Gap

      0     0     1104.2892   642                   1104.2892     5606         
      0     0     1104.2892     2                 Flowcuts: 2     5607         
*     0+    0                          627.8056     1104.2892            75.90%
*     0+    0                         1064.3940     1104.2892             3.75%

Repeating presolve.
Tried aggregator 3 times.
MIP Presolve eliminated 12393 rows and 9567 columns.
MIP Presolve modified 14423 coefficients.
Aggregator did 143 substitutions.
Reduced MIP has 11544 rows, 10807 columns, and 35115 nonzeros.
Reduced MIP has 3970 binaries, 0 generals, 0 SOSs, and 0 indicators.
Presolve time = 0.09 sec. (59.28 ticks)
Probing fixed 269 vars, tightened 30634 bounds.
Probing time = 0.13 sec. (61.98 ticks)
Cover probing fixed 0 vars, tightened 1573 bounds.
Tried aggregator 4 times.
MIP Presolve eliminated 5273 rows and 5197 columns.
MIP Presolve modified 1954 coefficients.
Aggregator did 109 substitutions.
Reduced MIP has 6162 rows, 5501 columns, and 20240 nonzeros.
Reduced MIP has 1955 binaries, 0 generals, 0 SOSs, and 0 indicators.
Presolve time = 0.05 sec. (27.52 ticks)
Probing fixed 10 vars, tightened 2927 bounds.
Probing time = 0.05 sec. (13.86 ticks)
Tried aggregator 4 times.
MIP Presolve eliminated 40 rows and 37 columns.
MIP Presolve modified 1150 coefficients.
Aggregator did 10 substitutions.
Reduced MIP has 6112 rows, 5453 columns, and 20017 nonzeros.
Reduced MIP has 1945 binaries, 0 generals, 0 SOSs, and 0 indicators.
Presolve time = 0.03 sec. (22.28 ticks)
Represolve time = 0.42 sec. (220.94 ticks)
Probing fixed 36 vars, tightened 3403 bounds.
Probing time = 0.03 sec. (7.99 ticks)
Clique table members: 2476.
MIP emphasis: balance optimality and feasibility.
MIP search method: dynamic search.
Parallel mode: opportunistic, using up to 32 threads.
Root relaxation solution time = 0.11 sec. (95.82 ticks)

        Nodes                                         Cuts/
   Node  Left     Objective  IInf  Best Integer    Best Bound    ItCnt     Gap

*     0+    0                         1064.3940     1101.9770             3.53%
      0     0     1101.9770     8     1064.3940     1101.9770     7203    3.53%
      0     0     1074.2144     5     1064.3940      Cuts: 19     7222    0.92%

Implied bound cuts applied:  1
Flow cuts applied:  2
Mixed integer rounding cuts applied:  1
Gomory fractional cuts applied:  3

Root node processing (before b&c):
  Real time             =    6.83 sec. (4256.91 ticks)
Parallel b&c, 32 threads:
  Real time             =    0.00 sec. (0.00 ticks)
  Sync time (average)   =    0.00 sec.
  Wait time (average)   =    0.00 sec.
                          ------------
Total (root+branch&cut) =    6.83 sec. (4256.91 ticks)

Solution pool: 2 solutions saved.

MIP - Integer optimal, tolerance (0.01/1e-06):  Objective =  1.0643939650e+03
Current MIP best bound =  1.0742144249e+03 (gap = 9.82046, 0.92%)
Solution time =    6.86 sec.  Iterations = 7222  Nodes = 0 (1)
Deterministic time = 4257.07 ticks  (620.56 ticks/sec)

CPLEX> Incumbent solution written to file 'C:\Users\llavin\Desktop\test826\logs\tmp_6d4ghjc.cplex.sol'.
CPLEX> NOTE: no warmstart specified for MIP iteration, default behavior is true
NOTE: resolving with all competitive generators using storage-only solution to warmstart
Solving...

Welcome to IBM(R) ILOG(R) CPLEX(R) Interactive Optimizer 12.9.0.0
  with Simplex, Mixed Integer & Barrier Optimizers
5725-A06 5725-A29 5724-Y48 5724-Y49 5724-Y54 5724-Y55 5655-Y21
Copyright IBM Corp. 1988, 2019.  All Rights Reserved.

Type 'help' for a list of available commands.
Type 'help' followed by a command name for more
information on commands.

CPLEX> Logfile 'cplex.log' closed.
Logfile 'C:\Users\llavin\Desktop\test826\logs\tmper9fhenn.cplex.log' open.
CPLEX> New value for parallel optimization mode: -1
CPLEX> New value for mixed integer optimality gap tolerance: 0.01
CPLEX> New value for integrality tolerance: 1e-09
CPLEX> New value for feasibility tolerance: 0.001
CPLEX> New value for deterministic time limit in ticks: 75000
CPLEX> Problem 'C:\Users\llavin\Desktop\test826\logs\tmpzhu6114u.pyomo.lp' read.
Read time = 0.25 sec. (14.75 ticks)
CPLEX> MIP start file 'C:\Users\llavin\Desktop\test826\logs\tmp1h4seovk.cplex.mst' read.
CPLEX> Problem name         : C:\Users\llavin\Desktop\test826\logs\tmpzhu6114u.pyomo.lp
Objective sense      : Maximize
Variables            :   54525  [Nneg: 1,  Box: 22720,  Free: 4464,
                                 Binary: 27340]
Objective nonzeros   :    9749
Linear constraints   :  123205  [Less: 41346,  Greater: 59096,  Equal: 22763]
  Nonzeros           :  291753
  RHS nonzeros       :   67491

Variables            : Min LB: -5000.000        Max UB: 1000000.       
Objective nonzeros   : Min   : 0.3083333        Max   : 2500.000       
Linear constraints   :
  Nonzeros           : Min   : 0.3083333        Max   : 1000000.       
  RHS nonzeros       : Min   : 0.3083333        Max   : 1000000.       
CPLEX> CPXPARAM_Parallel                                -1
CPXPARAM_Simplex_Tolerances_Feasibility          0.001
CPXPARAM_DetTimeLimit                            75000
CPXPARAM_MIP_Tolerances_MIPGap                   0.01
CPXPARAM_MIP_Tolerances_Integrality              1.0000000000000001e-09
Warning:  No solution found from 1 MIP starts.
Retaining values of one MIP start for possible repair.
Tried aggregator 3 times.
MIP Presolve eliminated 88637 rows and 19681 columns.
MIP Presolve added 3378 rows and 0 columns.
MIP Presolve modified 24880 coefficients.
Aggregator did 12984 substitutions.
Reduced MIP has 24962 rows, 21304 columns, and 71183 nonzeros.
Reduced MIP has 8420 binaries, 0 generals, 0 SOSs, and 0 indicators.
Presolve time = 0.30 sec. (172.71 ticks)
Probing fixed 373 vars, tightened 2844 bounds.
Probing time = 1.20 sec. (885.31 ticks)
Tried aggregator 2 times.
MIP Presolve eliminated 845 rows and 747 columns.
MIP Presolve modified 2213 coefficients.
Aggregator did 37 substitutions.
Reduced MIP has 24080 rows, 20520 columns, and 68630 nonzeros.
Reduced MIP has 8047 binaries, 0 generals, 0 SOSs, and 0 indicators.
Presolve time = 0.11 sec. (67.76 ticks)
Probing time = 0.05 sec. (15.88 ticks)
Clique table members: 6597.
MIP emphasis: balance optimality and feasibility.
MIP search method: dynamic search.
Parallel mode: opportunistic, using up to 32 threads.
Root relaxation solution time = 0.41 sec. (512.32 ticks)

        Nodes                                         Cuts/
   Node  Left     Objective  IInf  Best Integer    Best Bound    ItCnt     Gap

      0     0     1104.2892   642                   1104.2892     5606         
*     0+    0                          627.8056     1104.2892            75.90%
      0     0     1104.2892     2      627.8056   Flowcuts: 2     5607   75.90%
*     0+    0                         1064.3940     1104.2892             3.75%
Repair heuristic found nothing.

Repeating presolve.
Tried aggregator 3 times.
MIP Presolve eliminated 12272 rows and 9448 columns.
MIP Presolve modified 17431 coefficients.
Aggregator did 157 substitutions.
Reduced MIP has 11651 rows, 10912 columns, and 35431 nonzeros.
Reduced MIP has 4012 binaries, 0 generals, 0 SOSs, and 0 indicators.
Presolve time = 0.11 sec. (65.82 ticks)
Probing fixed 303 vars, tightened 38233 bounds.
Probing time = 0.16 sec. (70.41 ticks)
Cover probing fixed 0 vars, tightened 1691 bounds.
Tried aggregator 5 times.
MIP Presolve eliminated 5385 rows and 5307 columns.
MIP Presolve modified 2442 coefficients.
Aggregator did 127 substitutions.
Reduced MIP has 6139 rows, 5478 columns, and 20103 nonzeros.
Reduced MIP has 1959 binaries, 0 generals, 0 SOSs, and 0 indicators.
Presolve time = 0.06 sec. (33.75 ticks)
Probing fixed 13 vars, tightened 2597 bounds.
Probing time = 0.03 sec. (14.39 ticks)
Tried aggregator 2 times.
MIP Presolve eliminated 41 rows and 38 columns.
MIP Presolve modified 1098 coefficients.
Aggregator did 2 substitutions.
Reduced MIP has 6096 rows, 5437 columns, and 19931 nonzeros.
Reduced MIP has 1946 binaries, 0 generals, 0 SOSs, and 0 indicators.
Presolve time = 0.02 sec. (15.72 ticks)
Represolve time = 0.47 sec. (244.35 ticks)
Probing fixed 24 vars, tightened 2011 bounds.
Probing time = 0.03 sec. (7.57 ticks)
Clique table members: 2474.
MIP emphasis: balance optimality and feasibility.
MIP search method: dynamic search.
Parallel mode: opportunistic, using up to 32 threads.
Root relaxation solution time = 0.11 sec. (97.18 ticks)

        Nodes                                         Cuts/
   Node  Left     Objective  IInf  Best Integer    Best Bound    ItCnt     Gap

*     0+    0                         1064.3940     1101.9770             3.53%
      0     0     1101.9770     7     1064.3940     1101.9770     7188    3.53%
      0     0     1101.9770     4     1064.3940      Cuts: 30     7203    3.53%
      0     0     1074.2144     5     1064.3940   MIRcuts: 10     7214    0.92%

Clique cuts applied:  4
Implied bound cuts applied:  6
Flow cuts applied:  1
Mixed integer rounding cuts applied:  2
Gomory fractional cuts applied:  4

Root node processing (before b&c):
  Real time             =    5.47 sec. (3472.91 ticks)
Parallel b&c, 32 threads:
  Real time             =    0.00 sec. (0.00 ticks)
  Sync time (average)   =    0.00 sec.
  Wait time (average)   =    0.00 sec.
                          ------------
Total (root+branch&cut) =    5.47 sec. (3472.91 ticks)

Solution pool: 2 solutions saved.

MIP - Integer optimal, tolerance (0.01/1e-06):  Objective =  1.0643939650e+03
Current MIP best bound =  1.0742144249e+03 (gap = 9.82046, 0.92%)
Solution time =    5.48 sec.  Iterations = 7214  Nodes = 0 (1)
Deterministic time = 3473.07 ticks  (633.31 ticks/sec)

CPLEX> Incumbent solution written to file 'C:\Users\llavin\Desktop\test826\logs\tmppyluy78_.cplex.sol'.
CPLEX> Exporting results... 
